c This file was generated with the constraints_to_cnf module in this project.
c Starting from file 'constraints.txt'.
c There are 26 variables present in the constraints, and 85 total variables, given by the shape [1, 85].
c
p cnf 85 48
14 -15 0
15 -14 0
16 -43 0
20 -38 0
20 -75 0
20 -77 0
22 -59 0
29 -54 0
29 -60 0
29 -80 0
31 -55 0
31 -62 0
38 -20 0
38 -53 0
38 -77 0
40 -47 0
40 -76 0
42 -49 0
43 -16 0
49 -42 0
53 -38 0
54 -29 0
54 -60 0
54 -63 0
55 -31 0
55 -62 0
59 -22 0
60 -29 0
60 -54 0
60 -63 0
60 -80 0
62 -31 0
62 -55 0
63 -54 0
63 -60 0
67 -53 0
67 -66 0
75 -20 0
75 -77 0
76 -40 0
76 -47 0
77 -20 0
77 -38 0
77 -53 0
77 -75 0
80 -29 0
80 -54 0
80 -60 0

